c   #vars: 123   #clauses: 562   #literals: 1534
c 
p cnf 123 562
24 66 67 -105 0
-2 -3 0
64 65 66 67 0
91 92 99 100 0
-4 -5 0
-6 -7 0
-8 -9 0
-10 -11 0
-12 -13 0
-14 -15 0
-16 -17 0
-18 -19 0
-20 -21 0
-22 -23 0
45 -64 79 80 0
-25 -26 0
-27 -28 0
-29 -30 0
-31 -32 0
-33 -34 0
-35 -36 0
-37 -38 0
-39 -40 0
-41 -42 0
-43 -44 0
35 36 56 -116 0
-46 -47 0
-48 -49 0
-50 -51 0
-52 -53 0
-54 -55 0
-45 57 121 122 0
72 97 98 -105 0
52 53 97 98 0
70 71 97 98 0
-58 -59 0
-60 -61 0
-62 -63 0
-64 -65 0
-66 -67 0
-68 -69 0
-70 -71 0
-11 68 69 93 0
12 13 64 65 0
-73 -74 0
-75 -76 0
-77 -78 0
-79 -80 0
-81 -82 0
-83 -84 0
62 63 75 76 0
27 28 112 113 0
-85 -86 0
-87 -88 0
-89 -90 0
-91 -92 0
12 13 -72 96 0
-94 -95 0
-97 -98 0
-99 -100 0
-101 -102 0
-103 -104 0
-105 -106 0
1 -93 103 104 0
4 5 54 55 0
-107 -108 0
-109 -110 0
20 21 -111 123 0
-112 -113 0
-114 -115 0
-116 -117 0
2 3 16 17 0
-119 -120 0
6 7 12 13 0
-121 -122 0
112 113 121 122 0
24 66 67 -103 0
-1 -21 0
-21 -62 111 123 0
24 103 104 -105 0
12 13 -17 96 0
68 69 114 115 0
24 -66 103 104 0
-1 -104 0
8 9 18 19 0
-2 -16 0
-3 -17 0
-2 -29 0
-3 -30 0
62 63 111 -123 0
-2 -39 0
-3 -40 0
27 28 33 34 0
-2 -77 0
-3 -78 0
33 34 43 44 0
-2 -105 0
-3 -106 0
70 71 75 76 0
62 63 -109 118 0
62 63 -64 118 0
60 61 94 95 0
6 7 107 108 0
-4 -33 0
-5 -34 0
48 49 94 95 0
-4 -41 0
-5 -42 0
16 17 70 71 0
-4 -54 0
-5 -55 0
6 7 66 67 0
-4 -73 0
-5 -74 0
41 42 79 80 0
-4 -77 0
-5 -78 0
-4 -87 0
-5 -88 0
1 -20 103 104 0
6 7 43 44 0
-6 -12 0
-7 -13 0
43 44 119 120 0
-6 -25 0
-7 -26 0
8 9 43 44 0
-6 -43 0
-7 -44 0
39 40 68 69 0
-6 -66 0
-7 -67 0
48 49 73 74 0
-6 -73 0
-7 -74 0
4 5 77 78 0
-6 -107 0
-7 -108 0
64 65 81 82 0
-6 -123 0
45 64 65 -79 0
-8 -18 0
-9 -19 0
10 11 94 95 0
-8 -25 0
-9 -26 0
10 11 14 15 0
-8 -35 0
-9 -36 0
-17 72 96 -105 0
-8 -43 0
-9 -44 0
-8 -81 0
-9 -82 0
-62 64 65 118 0
-10 -14 0
-11 -15 0
2 3 29 30 0
-10 -20 0
-11 -21 0
29 30 83 84 0
-10 -81 0
-11 -82 0
1 -11 93 -103 0
-10 -93 0
16 17 -72 96 0
12 13 83 84 0
-10 -94 0
-11 -95 0
8 9 35 36 0
-12 -29 0
-13 -30 0
22 23 48 49 0
-12 -41 0
-13 -42 0
-12 -50 0
-13 -51 0
20 21 43 44 0
-12 -64 0
-13 -65 0
18 19 89 90 0
-12 -83 0
-13 -84 0
20 21 107 108 0
-12 -87 0
-13 -88 0
-58 62 63 111 0
-12 -96 0
99 100 121 122 0
-14 -57 0
72 -96 97 98 0
46 47 107 108 0
-14 -75 0
-15 -76 0
10 11 20 21 0
-14 -114 0
-15 -115 0
-16 -60 0
-17 -61 0
48 49 52 53 0
-16 -70 0
-17 -71 0
22 23 52 53 0
-16 -87 0
-17 -88 0
-13 72 96 -105 0
-16 -96 0
-62 109 110 118 0
-16 -99 0
-17 -100 0
39 40 87 88 0
-18 -89 0
-19 -90 0
25 26 29 30 0
-18 -97 0
-19 -98 0
31 32 87 88 0
-18 -107 0
-19 -108 0
43 44 58 59 0
-20 -43 0
-21 -44 0
62 63 116 117 0
-20 -50 0
-21 -51 0
6 7 25 26 0
-17 72 96 -97 0
85 86 103 104 0
-20 -81 0
-21 -82 0
4 5 41 42 0
-20 -107 0
-21 -108 0
91 92 109 110 0
-20 -123 0
14 15 114 115 0
-22 -37 0
-23 -38 0
73 74 91 92 0
-22 -48 0
-23 -49 0
48 49 75 76 0
-22 -52 0
-23 -53 0
25 26 60 61 0
-22 -62 0
-23 -63 0
37 38 109 110 0
45 -57 79 80 0
-24 -67 0
73 74 105 106 0
72 -96 105 106 0
-24 -104 0
77 78 87 88 0
72 -97 105 106 0
-24 -106 0
45 57 -64 -122 0
-25 -29 0
-26 -30 0
25 26 33 34 0
-25 -33 0
-26 -34 0
33 34 105 106 0
-25 -60 0
-26 -61 0
-25 -79 0
-26 -80 0
1 20 21 -103 0
-25 -107 0
-26 -108 0
16 17 99 100 0
-25 -119 0
-26 -120 0
12 13 41 42 0
-27 -33 0
-28 -34 0
-27 -58 0
-28 -59 0
89 90 97 98 0
-27 -64 0
-28 -65 0
-27 -112 0
-28 -113 0
18 19 107 108 0
-29 -83 0
-30 -84 0
73 74 119 120 0
-29 -107 0
-30 -108 0
22 23 37 38 0
-31 -83 0
-32 -84 0
46 47 121 122 0
-31 -85 0
-32 -86 0
54 55 87 88 0
-31 -87 0
-32 -88 0
-31 -121 0
-32 -122 0
58 59 85 86 0
-33 -43 0
-34 -44 0
-33 -70 0
-34 -71 0
101 102 109 110 0
-33 -79 0
-34 -80 0
101 102 103 104 0
-33 -101 0
-34 -102 0
81 82 121 122 0
-33 -105 0
-34 -106 0
-35 -50 0
-36 -51 0
45 57 -79 -122 0
-15 57 121 122 0
-36 -56 0
2 3 39 40 0
-35 -68 0
-36 -69 0
37 38 39 40 0
-35 -70 0
-36 -71 0
12 13 29 30 0
-37 -39 0
-38 -40 0
4 5 73 74 0
-37 -109 0
-38 -110 0
16 17 87 88 0
-37 -114 0
-38 -115 0
87 88 91 92 0
41 42 89 90 0
-39 -68 0
-40 -69 0
-39 -87 0
-40 -88 0
50 51 91 92 0
-41 -73 0
-42 -74 0
4 5 87 88 0
-41 -79 0
-42 -80 0
64 65 75 76 0
-41 -89 0
-42 -90 0
27 28 58 59 0
-43 -58 0
-44 -59 0
-7 -58 111 123 0
-43 -64 0
-44 -65 0
-43 -119 0
-44 -120 0
60 61 68 69 0
35 36 -52 56 0
64 65 -109 118 0
-52 56 116 117 0
-45 -65 0
-35 56 116 117 0
-45 -80 0
31 32 83 84 0
-46 -79 0
-47 -80 0
77 78 101 102 0
-46 -107 0
-47 -108 0
-46 -114 0
-47 -115 0
20 21 50 51 0
-46 -121 0
-47 -122 0
35 36 50 51 0
-48 -52 0
-49 -53 0
-48 -73 0
-49 -74 0
45 -57 64 65 0
-48 -75 0
-49 -76 0
1 -11 -20 93 0
-48 -94 0
-49 -95 0
22 23 62 63 0
-50 -91 0
-51 -92 0
-21 -58 111 123 0
-50 -121 0
-51 -122 0
12 13 50 51 0
14 15 57 -122 0
-53 -56 0
54 55 94 95 0
-52 -60 0
-53 -61 0
1 -69 93 -103 0
-52 -97 0
-53 -98 0
35 36 70 71 0
-54 -75 0
-55 -76 0
-54 -87 0
-55 -88 0
-35 52 53 56 0
-54 -91 0
-55 -92 0
18 19 97 98 0
-54 -94 0
-55 -95 0
27 28 64 65 0
-54 -105 0
-55 -106 0
25 26 79 80 0
14 15 -45 57 0
-56 -117 0
29 30 107 108 0
-57 -121 0
73 74 112 113 0
-20 -21 60 61 0
8 9 81 82 0
-58 -60 0
-59 -61 0
75 76 109 110 0
20 21 81 82 0
58 59 -62 111 0
-58 -85 0
-59 -86 0
-7 -62 111 123 0
-7 20 21 123 0
-59 -111 0
-60 -68 0
-61 -69 0
1 20 21 -93 0
54 55 105 106 0
-60 -91 0
-61 -92 0
33 34 101 102 0
-60 -94 0
-61 -95 0
66 67 89 90 0
-62 -75 0
-63 -76 0
25 26 119 120 0
6 7 -111 123 0
-63 -111 0
-64 109 110 118 0
-62 -116 0
-63 -117 0
31 32 121 122 0
-63 -118 0
35 36 68 69 0
-64 -66 0
-65 -67 0
54 55 91 92 0
-64 -75 0
-65 -76 0
85 86 99 100 0
-64 -81 0
-65 -82 0
33 34 70 71 0
-65 -118 0
52 53 60 61 0
-66 -89 0
-67 -90 0
4 5 33 34 0
-13 72 96 -97 0
-15 45 57 -64 0
-68 -93 0
-13 16 17 96 0
-15 45 57 -79 0
-68 -114 0
-69 -115 0
81 82 119 120 0
-70 -75 0
-71 -76 0
10 11 81 82 0
-70 -97 0
-71 -98 0
-1 68 69 93 0
2 3 77 78 0
10 11 -69 93 0
-72 -98 0
16 17 60 61 0
-1 10 11 93 0
-72 -106 0
2 3 105 106 0
-73 -91 0
-74 -92 0
50 51 121 122 0
-73 -105 0
-74 -106 0
46 47 114 115 0
-73 -112 0
-74 -113 0
-73 -119 0
-74 -120 0
52 53 56 -116 0
116 117 119 120 0
-75 -109 0
-76 -110 0
46 47 79 80 0
-77 -87 0
-78 -88 0
-77 -101 0
-78 -102 0
8 9 25 26 0
-81 -119 0
-82 -120 0
31 32 85 86 0
-81 -121 0
-82 -122 0
43 44 64 65 0
-83 -112 0
-84 -113 0
54 55 75 76 0
25 26 107 108 0
58 59 111 -123 0
85 86 97 98 0
-85 -97 0
-86 -98 0
12 13 87 88 0
-85 -99 0
-86 -100 0
83 84 112 113 0
-85 -103 0
-86 -104 0
105 106 116 117 0
-87 -91 0
-88 -92 0
24 -66 105 106 0
-89 -97 0
-90 -98 0
58 59 60 61 0
-91 -99 0
-92 -100 0
14 15 75 76 0
-91 -109 0
-92 -110 0
60 61 91 92 0
-99 -121 0
-100 -122 0
24 -103 105 106 0
-101 -103 0
-102 -104 0
1 -20 -69 93 0
-101 -109 0
-102 -110 0
33 34 79 80 0
-105 -116 0
-106 -117 0
-110 -118 0
41 42 73 74 0
6 7 -21 123 0
37 38 114 115 0
-112 -121 0
-113 -122 0
6 7 73 74 0
-116 -119 0
-117 -120 0
